NAME : portcgen-27-1
COMMENT : portcgen N=27, seed=1
TYPE : TSP
DIMENSION : 27
EDGE_WEIGHT_TYPE : EUC_2D
NODE_COORD_SECTION
1 -129644 -264525
2 -93966 -110185
3 -42095 35024
4 -14474 -83302
5 -311118 92468
6 -126959 -202767
7 -265610 74924
8 172822 211550
9 216830 -110230
10 -113936 -117312
11 35060 91850
12 -109245 -32772
13 22537 -6903
14 -226021 344650
15 -71013 65231
16 -94834 -1139
17 -32977 11917
18 -176267 186319
19 2077 228250
20 6548 -243844
21 84808 171314
22 11735 79396
23 250698 14889
24 134097 -42774
25 103997 166633
26 18390 -299605
27 -261727 28230
